Start evaluate stage for setting _10000_5_4q_mnl...

Evaluating using MNL with setting tag _10000_5_4q_mnl.
 Results stored at /export/storage_covidvaccine/Result/MNL_partial/M5_K10000_4q/HighSchools

Set parameter ServerPassword
Set parameter CSQueueTimeout to value 120
Set parameter CSIdleTimeout to value 60
Set parameter ServerTimeout to value 10
Set parameter TokenServer to value "164.67.163.231"
Set parameter MIPFocus to value 3
Set parameter MIPGap to value 0.005
Set parameter TimeLimit to value 21600
Gurobi Optimizer version 10.0.1 build v10.0.1rc0 (linux64)

CPU model: AMD EPYC 7742 64-Core Processor, instruction set [SSE2|AVX|AVX2]
Thread count: 128 physical cores, 256 logical processors, using up to 32 threads

Optimize a model with 85812375 rows, 42903525 columns and 85841364 nonzeros
Model fingerprint: 0xc74e55d6
Coefficient statistics:
  Matrix range     [4e-01, 8e+03]
  Objective range  [4e-01, 8e+03]
  Bounds range     [1e+00, 1e+00]
  RHS range        [1e+00, 1e+04]
Presolve removed 1290 rows and 0 columns (presolve time = 15s) ...
Presolve removed 85811296 rows and 42869211 columns (presolve time = 24s) ...
Presolve removed 85811296 rows and 42891049 columns (presolve time = 28s) ...
Presolve removed 85811296 rows and 42902446 columns (presolve time = 31s) ...
Presolve removed 85811296 rows and 42902446 columns (presolve time = 36s) ...
Presolve removed 85812375 rows and 42903525 columns
Presolve time: 45.00s
Presolve: All rows and columns removed
Iteration    Objective       Primal Inf.    Dual Inf.      Time
       0    3.4055021e+07   0.000000e+00   0.000000e+00    103s

Solved in 0 iterations and 103.27 seconds (51.24 work units)
Optimal objective  3.405502133e+07
Evaluation finished!

Finished evaluate stage for setting _10000_5_4q_mnl!

